Linux optc-03-11 4.15.0-88-generic #88-Ubuntu SMP Tue Feb 11 20:11:34 UTC 2020 x86_64 x86_64 x86_64 GNU/Linux

top - 23:16:40 up 3 days, 10:08,  0 users,  load average: 1,02, 1,03, 1,24
Tasks: 410 gesamt,   2 laufend, 212 schlafend,   0 gestoppt,   0 Zombie
%CPU(s):  6,6 be,  0,1 sy,  0,0 ni, 93,3 un,  0,0 wa,  0,0 hi,  0,0 si,  0,0 st
KiB Spch : 65916192 gesamt, 60418880 frei,  2672264 belegt,  2825048 Puff/Cache
KiB Swap:  8388604 gesamt,  8388604 frei,        0 belegt. 62667208 verfü Spch 

  PID USER      PR  NI    VIRT    RES    SHR S  %CPU %MEM     ZEIT+ BEFEHL
20073 adm_timo  20   0 2076056 1,818g  50288 R  66,7  2,9   6:58.89 fscip
20555 bzfhende  20   0   52808   4312   3432 R   4,2  0,0   0:00.02 top
    1 root      20   0  233660   9112   6568 S   0,0  0,0   0:21.35 systemd
    2 root      20   0       0      0      0 S   0,0  0,0   0:00.37 kthreadd
    4 root       0 -20       0      0      0 I   0,0  0,0   0:00.00 kworker/0:+
    5 root      20   0       0      0      0 I   0,0  0,0   0:00.00 kworker/u9+
    7 root       0 -20       0      0      0 I   0,0  0,0   0:00.00 mm_percpu_+
    8 root      20   0       0      0      0 S   0,0  0,0   0:00.56 ksoftirqd/0

hard time limit: 00-04:10:00
hard mem limit: 27600

SLURM jobID: 6407504

@01 /nfs/OPTI/bzfhende/instances//./miplib2010_publically_available/instances/k20x380b.mps.gz ===========
-----------------------------
So 8. Mär 23:16:40 CET 2020
-----------------------------
@03 1583705800
@05 7200
SCIP version 7.0.0 [precision: 8 byte] [memory: block] [mode: optimized] [LP solver: CPLEX 12.10.0.0] [GitHash: 297532de76]
Copyright (C) 2002-2020 Konrad-Zuse-Zentrum fuer Informationstechnik Berlin (ZIB)

External codes: 
  Readline 7.0         GNU library for command line editing (gnu.org/s/readline)
  CPLEX 12.10.0.0      Linear Programming Solver developed by IBM (www.cplex.com)
  CppAD 20180000.0     Algorithmic Differentiation of C++ algorithms developed by B. Bell (www.coin-or.org/CppAD)
  ZLIB 1.2.11          General purpose compression library by J. Gailly and M. Adler (zlib.net)
  GMP 6.1.2            GNU Multiple Precision Arithmetic Library developed by T. Granlund (gmplib.org)
  bliss 0.73p          Computing Graph Automorphism Groups by T. Junttila and P. Kaski (http://www.tcs.hut.fi/Software/bliss/)

user parameter file <scip.set> not found - using default parameters

SCIP> 
SCIP> set load /home/optimi/bzfhende/opti/scip-opti/check/../settings/periodic_reeport.set
loaded parameter file </home/optimi/bzfhende/opti/scip-opti/check/../settings/periodic_report.set>
SCIP> set randomization randomseedshift 3
randomization/randomseedshift = 3
SCIP> set limits time 7200
limits/time = 7200
SCIP> set limits nodes 2100000000
limits/nodes = 2100000000
SCIP> set limits memory 25000
limits/memory = 25000
SCIP> set lp advanced threads 1
lp/threads = 1
SCIP> set timing clocktype 1
timing/clocktype = 1
SCIP> set display freq 10000
display/freq = 10000
SCIP> set memory savefac 1.0
memory/savefac = 1
SCIP> set save /home/optimi/bzfhende/opti/scip-opti/check/treesize.prediction.fixxedCostNetworkFlow.seeds/bzfhende.instancegroups_fixedCostNetworkFlow.12_k20x380bb.scip.M620.periodic_report-s3.set
saved parameter file </home/optimi/bzfhende/opti/scip-opti/check/treesize.prediction.fixedCostNetworkFlow.seeds/bzfhende.instancegroups_fixedCostNetworkFlow.12_k20x380b.scip.M620.periodic_report-s3.set>
SCIP> read /nfs/OPTI/bzfhende/instances//./miplib2010_publically_available/instannces/k20x380b.mps.gz

read problem </nfs/OPTI/bzfhende/instances//./miplib2010_publically_available/instances/k20x380b.mps.gz>
============

original problem has 760 variables (380 bin, 0 int, 0 impl, 380 cont) and 400 constraints
SCIP> display parameters

number of parameters = 2603
non-default parameter settings:
display/freq = 10000
limits/time = 7200
limits/nodes = 2100000000
limits/memory = 25000
lp/threads = 1
memory/savefac = 1
randomization/randomseedshift = 3
timing/clocktype = 1
estimation/restarts/restartpolicy = n
estimation/restarts/restartlimit = 0
estimation/reportfreq = 100
estimation/treeprofile/enabled = TRUE

SCIP> optimize

presolving:
(round 1, exhaustive) 0 del vars, 0 del conss, 0 add conss, 0 chg bounds, 0 chg sides, 0 chg coeffs, 380 upgd conss, 0 impls, 0 clqs
   (0.0s) probing: 51/380 (13.4%) - 0 fixings, 0 aggregations, 0 implications, 0 bound changes
   (0.0s) probing aborted: 50/50 successive totally useless probings
   (0.0s) symmetry computation started: requiring (bin +, int +, cont +), (fixed: bin -, int -, cont -)
   (0.0s) no symmetry present
presolving (2 rounds: 2 fast, 2 medium, 2 exhaustive):
 0 deleted vars, 0 deleted constraints, 0 added constraints, 0 tightened bounds, 0 added holes, 0 changed sides, 0 changed coefficients
 380 implications, 0 cliques
presolved problem has 760 variables (380 bin, 0 int, 0 impl, 380 cont) and 400 constraints
    380 constraints of type <varbound>
     20 constraints of type <linear>
Presolving Time: 0.01

 time | node  | left  |LP iter|LP it/n|mem/heur|mdpt |vars |cons |rows |cuts |sepa|confs|strbr|  dualbound   | primalbound  |  gap   | compl. 
p 0.0s|     1 |     0 |    13 |     - |   locks|   0 | 760 | 400 | 400 |   0 |  0 |   0 |   0 | 0.000000e+00 | 5.623380e+05 |    Inf | unknown
i 0.0s|     1 |     0 |    13 |     - |  oneopt|   0 | 760 | 400 | 400 |   0 |  0 |   0 |   0 | 0.000000e+00 | 1.977400e+04 |    Inf | unknown
  0.0s|     1 |     0 |    26 |     - |  8259k |   0 | 760 | 400 | 400 |   0 |  0 |   0 |   0 | 1.764920e+03 | 1.977400e+04 |1020.39%| unknown
r 0.0s|     1 |     0 |    26 |     - |simplero|   0 | 760 | 400 | 400 |   0 |  0 |   0 |   0 | 1.764920e+03 | 1.377400e+04 | 680.43%| unknown
  0.0s|     1 |     0 |    47 |     - |  8567k |   0 | 760 | 400 | 411 |  11 |  1 |   0 |   0 | 3.792149e+03 | 1.377400e+04 | 263.22%| unknown
  0.0s|     1 |     0 |   110 |     - |  8750k |   0 | 760 | 400 | 427 |  27 |  2 |   0 |   0 | 9.494372e+03 | 1.377400e+04 |  45.08%| unknown
  0.0s|     1 |     0 |   145 |     - |  9101k |   0 | 760 | 400 | 435 |  35 |  3 |   0 |   0 | 1.102617e+04 | 1.377400e+04 |  24.92%| unknown
  0.0s|     1 |     0 |   153 |     - |  9200k |   0 | 760 | 400 | 440 |  40 |  4 |   0 |   0 | 1.108911e+04 | 1.377400e+04 |  24.21%| unknown
  0.0s|     1 |     0 |   165 |     - |  9559k |   0 | 760 | 400 | 447 |  47 |  5 |   0 |   0 | 1.112639e+04 | 1.377400e+04 |  23.80%| unknown
  0.1s|     1 |     0 |   177 |     - |  9735k |   0 | 760 | 400 | 453 |  53 |  6 |   0 |   0 | 1.122015e+04 | 1.377400e+04 |  22.76%| unknown
  0.1s|     1 |     0 |   183 |     - |  9803k |   0 | 760 | 400 | 458 |  58 |  7 |   0 |   0 | 1.123033e+04 | 1.377400e+04 |  22.65%| unknown
  0.1s|     1 |     0 |   186 |     - |    10M |   0 | 760 | 400 | 461 |  61 |  8 |   0 |   0 | 1.123566e+04 | 1.377400e+04 |  22.59%| unknown
  0.1s|     1 |     0 |   192 |     - |    10M |   0 | 760 | 400 | 465 |  65 |  9 |   0 |   0 | 1.126003e+04 | 1.377400e+04 |  22.33%| unknown
  0.1s|     1 |     0 |   193 |     - |    10M |   0 | 760 | 400 | 466 |  66 | 10 |   0 |   0 | 1.126485e+04 | 1.377400e+04 |  22.27%| unknown
  0.1s|     1 |     0 |   195 |     - |    10M |   0 | 760 | 400 | 469 |  69 | 11 |   0 |   0 | 1.127277e+04 | 1.377400e+04 |  22.19%| unknown
 time | node  | left  |LP iter|LP it/n|mem/heur|mdpt |vars |cons |rows |cuts |sepa|confs|strbr|  dualbound   | primalbound  |  gap   | compl. 
  0.1s|     1 |     0 |   210 |     - |    10M |   0 | 760 | 400 | 471 |  71 | 12 |   0 |   0 | 1.129400e+04 | 1.377400e+04 |  21.96%| unknown
  0.1s|     1 |     0 |   215 |     - |    10M |   0 | 760 | 400 | 476 |  76 | 13 |   0 |   0 | 1.131603e+04 | 1.377400e+04 |  21.72%| unknown
  0.1s|     1 |     0 |   223 |     - |    11M |   0 | 760 | 400 | 478 |  78 | 14 |   0 |   0 | 1.131972e+04 | 1.377400e+04 |  21.68%| unknown
  0.1s|     1 |     0 |   231 |     - |    11M |   0 | 760 | 400 | 481 |  81 | 15 |   0 |   0 | 1.132927e+04 | 1.377400e+04 |  21.58%| unknown
  0.1s|     1 |     0 |   235 |     - |    11M |   0 | 760 | 400 | 463 |  82 | 16 |   0 |   0 | 1.133990e+04 | 1.377400e+04 |  21.46%| unknown
  0.1s|     1 |     0 |   240 |     - |    11M |   0 | 760 | 400 | 464 |  83 | 17 |   0 |   0 | 1.134032e+04 | 1.377400e+04 |  21.46%| unknown
  0.1s|     1 |     0 |   252 |     - |    11M |   0 | 760 | 400 | 465 |  84 | 18 |   0 |   0 | 1.134267e+04 | 1.377400e+04 |  21.44%| unknown
r 0.1s|     1 |     0 |   252 |     - |simplero|   0 | 760 | 400 | 465 |  84 | 18 |   0 |   0 | 1.134267e+04 | 1.301322e+04 |  14.73%| unknown
  0.1s|     1 |     0 |   260 |     - |    11M |   0 | 760 | 400 | 466 |  85 | 19 |   0 |   0 | 1.134300e+04 | 1.301322e+04 |  14.72%| unknown
d 0.1s|     1 |     0 |   260 |     - |farkasdi|   0 | 760 | 400 | 466 |   0 | 21 |   0 |   0 | 1.134300e+04 | 1.134300e+04 |   0.00%| unknown
  0.1s|     1 |     0 |   260 |     - |    11M |   0 | 760 | 400 | 466 |  85 | 21 |   0 |   0 | 1.134300e+04 | 1.134300e+04 |   0.00%| unknown
Report 1
Time Elapsed: 0.12
Estim. Tree Size   :          1
Estimation Tree    : 1 nodes (1 visited, 0 inner, 1 leaves, 0 open), weight: 1.0000 completed 1.0000
Estimations        :      estim      value      trend resolution     smooth
  wbe              :          1          -          -          -          -
  tree-profile     :         -1          -          -          -          -
  gap              :          1    1.00000    1.00000          1          1
  tree-weight      :          1    1.00000    1.00000          1          1
  leaf-frequency   :          1    0.50000    1.00000          1          1
  ssg              :          1    0.00000   -1.00000          1          1
  open-nodes       :          1    0.00000    0.00000          1          1
End of Report 1


SCIP Status        : problem is solved [optimal solution found]
Solving Time (sec) : 0.12
Solving Nodes      : 1
Primal Bound       : +1.13430000000000e+04 (22 solutions)
Dual Bound         : +1.13430000000000e+04
Gap                : 0.00 %

SCIP> display statistics

SCIP Status        : problem is solved [optimal solution found]
Total Time         :       0.12
  solving          :       0.12
  presolving       :       0.01 (included in solving)
  reading          :       0.00
  copying          :       0.00 (0 times copied the problem)
Original Problem   :
  Problem name     : k20x380b
  Variables        : 760 (380 binary, 0 integer, 0 implicit integer, 380 continuous)
  Constraints      : 400 initial, 400 maximal
  Objective        : minimize, 760 non-zeros (abs.min = 1, abs.max = 1996)
Presolved Problem  :
  Problem name     : t_k20x380b
  Variables        : 760 (380 binary, 0 integer, 0 implicit integer, 380 continuous)
  Constraints      : 400 initial, 400 maximal
  Objective        : minimize, 760 non-zeros (abs.min = 1, abs.max = 1996)
  Nonzeros         : 1520 constraint, 0 clique table
Presolvers         :   ExecTime  SetupTime  Calls  FixedVars   AggrVars   ChgTypes  ChgBounds   AddHoles    DelCons    AddCons   ChgSides   ChgCoefs
  boundshift       :       0.00       0.00      0          0          0          0          0          0          0          0          0          0
  convertinttobin  :       0.00       0.00      0          0          0          0          0          0          0          0          0          0
  domcol           :       0.00       0.00      1          0          0          0          0          0          0          0          0          0
  dualagg          :       0.00       0.00      0          0          0          0          0          0          0          0          0          0
  dualcomp         :       0.00       0.00      1          0          0          0          0          0          0          0          0          0
  dualinfer        :       0.00       0.00      0          0          0          0          0          0          0          0          0          0
  dualsparsify     :       0.00       0.00      1          0          0          0          0          0          0          0          0          0
  gateextraction   :       0.00       0.00      0          0          0          0          0          0          0          0          0          0
  implics          :       0.00       0.00      2          0          0          0          0          0          0          0          0          0
  inttobinary      :       0.00       0.00      0          0          0          0          0          0          0          0          0          0
  qpkktref         :       0.00       0.00      0          0          0          0          0          0          0          0          0          0
  redvub           :       0.00       0.00      0          0          0          0          0          0          0          0          0          0
  sparsify         :       0.01       0.00      1          0          0          0          0          0          0          0          0          0
  stuffing         :       0.00       0.00      0          0          0          0          0          0          0          0          0          0
  trivial          :       0.00       0.00      2          0          0          0          0          0          0          0          0          0
  tworowbnd        :       0.00       0.00      1          0          0          0          0          0          0          0          0          0
  dualfix          :       0.00       0.00      2          0          0          0          0          0          0          0          0          0
  genvbounds       :       0.00       0.00      0          0          0          0          0          0          0          0          0          0
  probing          :       0.00       0.00      1          0          0          0          0          0          0          0          0          0
  pseudoobj        :       0.00       0.00      0          0          0          0          0          0          0          0          0          0
  symmetry         :       0.00       0.00      1          0          0          0          0          0          0          0          0          0
  vbounds          :       0.00       0.00      0          0          0          0          0          0          0          0          0          0
  varbound         :       0.00       0.00      2          0          0          0          0          0          0          0          0          0
  linear           :       0.00       0.00      4          0          0          0          0          0          0          0          0          0
  benders          :       0.00       0.00      0          0          0          0          0          0          0          0          0          0
  components       :       0.00       0.00      1          0          0          0          0          0          0          0          0          0
  root node        :          -          -      -          0          -          -          0          -          -          -          -          -
Constraints        :     Number  MaxNumber  #Separate #Propagate    #EnfoLP    #EnfoRelax  #EnfoPS    #Check   #ResProp    Cutoffs    DomReds       Cuts    Applied      Conss   Children
  benderslp        :          0          0          0          0          0          0          0         51          0          0          0          0          0          0          0
  integral         :          0          0          0          0          0          0          0         51          0          0          0          0          0          0          0
  varbound         :        380        380         20        265          0          0          0         45          0          0          0          0          0          0          0
  linear           :         20         20         20        265          0          0          0         26          0          0          0         26          7          0          0
  benders          :          0          0          0          0          0          0          0         23          0          0          0          0          0          0          0
  countsols        :          0          0          0          0          0          0          0         23          0          0          0          0          0          0          0
  components       :          0          0          0          0          0          0          0          0          0          0          0          0          0          0          0
Constraint Timings :  TotalTime  SetupTime   Separate  Propagate     EnfoLP     EnfoPS     EnfoRelax   Check    ResProp    SB-Prop
  benderslp        :       0.00       0.00       0.00       0.00       0.00       0.00       0.00       0.00       0.00       0.00
  integral         :       0.00       0.00       0.00       0.00       0.00       0.00       0.00       0.00       0.00       0.00
  varbound         :       0.00       0.00       0.00       0.00       0.00       0.00       0.00       0.00       0.00       0.00
  linear           :       0.00       0.00       0.00       0.00       0.00       0.00       0.00       0.00       0.00       0.00
  benders          :       0.00       0.00       0.00       0.00       0.00       0.00       0.00       0.00       0.00       0.00
  countsols        :       0.00       0.00       0.00       0.00       0.00       0.00       0.00       0.00       0.00       0.00
  components       :       0.00       0.00       0.00       0.00       0.00       0.00       0.00       0.00       0.00       0.00
Propagators        : #Propagate   #ResProp    Cutoffs    DomReds
  dualfix          :          2          0          0          0
  genvbounds       :          0          0          0          0
  nlobbt           :          0          0          0          0
  obbt             :          0          0          0          0
  probing          :          0          0          0          0
  pseudoobj        :         23          0          0          0
  redcost          :         21          0          0          0
  rootredcost      :          0          0          0          0
  symmetry         :          0          0          0          0
  vbounds          :        216          0          0          0
Propagator Timings :  TotalTime  SetupTime   Presolve  Propagate    ResProp    SB-Prop
  dualfix          :       0.00       0.00       0.00       0.00       0.00       0.00
  genvbounds       :       0.00       0.00       0.00       0.00       0.00       0.00
  nlobbt           :       0.00       0.00       0.00       0.00       0.00       0.00
  obbt             :       0.00       0.00       0.00       0.00       0.00       0.00
  probing          :       0.00       0.00       0.00       0.00       0.00       0.00
  pseudoobj        :       0.00       0.00       0.00       0.00       0.00       0.00
  redcost          :       0.00       0.00       0.00       0.00       0.00       0.00
  rootredcost      :       0.00       0.00       0.00       0.00       0.00       0.00
  symmetry         :       0.00       0.00       0.00       0.00       0.00       0.00
  vbounds          :       0.00       0.00       0.00       0.00       0.00       0.00
Conflict Analysis  :       Time      Calls    Success    DomReds  Conflicts   Literals    Reconvs ReconvLits   Dualrays   Nonzeros   LP Iters   (pool size: [--,--])
  propagation      :       0.00          0          0          -          0        0.0          0        0.0          -          -          -
  infeasible LP    :       0.00          0          0          -          0        0.0          0        0.0          0        0.0          0
  bound exceed. LP :       0.00          0          0          -          0        0.0          0        0.0          0        0.0          0
  strong branching :       0.00          0          0          -          0        0.0          0        0.0          -          -          0
  pseudo solution  :       0.00          0          0          -          0        0.0          0        0.0          -          -          -
  applied globally :       0.00          -          -          0          0        0.0          -          -          0          -          -
  applied locally  :          -          -          -          0          0        0.0          -          -          0          -          -
Separators         :   ExecTime  SetupTime      Calls    Cutoffs    DomReds       Cuts    Applied      Conss
  cut pool         :       0.00                    38          -          -        363          -          -    (maximal pool size: 729)
  aggregation      :       0.05       0.00         19          0          0        513          0          0
  cgmip            :       0.00       0.00          0          0          0          0          0          0
  clique           :       0.00       0.00          1          0          0          0          0          0
  closecuts        :       0.00       0.00          0          0          0          0          0          0
  cmir             :       0.00       0.00          0          0          0          0         60          0
  convexproj       :       0.00       0.00          0          0          0          0          0          0
  disjunctive      :       0.00       0.00          0          0          0          0          0          0
  eccuts           :       0.00       0.00          0          0          0          0          0          0
  flowcover        :       0.00       0.00          0          0          0          0          7          0
  gauge            :       0.00       0.00          0          0          0          0          0          0
  gomory           :       0.02       0.00         10          0          0        127          5          0
  impliedbounds    :       0.00       0.00         19          0          0          0          0          0
  intobj           :       0.00       0.00          0          0          0          0          0          0
  mcf              :       0.02       0.00         14          0          0        162          6          0
  oddcycle         :       0.00       0.00          0          0          0          0          0          0
  rapidlearning    :       0.00       0.00          0          0          0          0          0          0
  strongcg         :       0.01       0.00         19          0          0          1          0          0
  zerohalf         :       0.00       0.00         19          0          0          4          0          0
Pricers            :   ExecTime  SetupTime      Calls       Vars
  problem variables:       0.00          -          0          0
Branching Rules    :   ExecTime  SetupTime   BranchLP  BranchExt   BranchPS    Cutoffs    DomReds       Cuts      Conss   Children
  allfullstrong    :       0.00       0.00          0          0          0          0          0          0          0          0
  cloud            :       0.00       0.00          0          0          0          0          0          0          0          0
  distribution     :       0.00       0.00          0          0          0          0          0          0          0          0
  fullstrong       :       0.00       0.00          0          0          0          0          0          0          0          0
  inference        :       0.00       0.00          0          0          0          0          0          0          0          0
  leastinf         :       0.00       0.00          0          0          0          0          0          0          0          0
  lookahead        :       0.00       0.00          0          0          0          0          0          0          0          0
  mostinf          :       0.00       0.00          0          0          0          0          0          0          0          0
  multaggr         :       0.00       0.00          0          0          0          0          0          0          0          0
  nodereopt        :       0.00       0.00          0          0          0          0          0          0          0          0
  pscost           :       0.00       0.00          0          0          0          0          0          0          0          0
  random           :       0.00       0.00          0          0          0          0          0          0          0          0
  relpscost        :       0.00       0.00          0          0          0          0          0          0          0          0
  vanillafullstrong:       0.00       0.00          0          0          0          0          0          0          0          0
Primal Heuristics  :   ExecTime  SetupTime      Calls      Found       Best
  LP solutions     :       0.00          -          -          0          0
  relax solutions  :       0.00          -          -          0          0
  pseudo solutions :       0.00          -          -          0          0
  strong branching :       0.00          -          -          0          0
  actconsdiving    :       0.00       0.00          0          0          0
  adaptivediving   :       0.00       0.00          0          0          0
  alns             :       0.00       0.00          0          0          0
  bound            :       0.00       0.00          0          0          0
  clique           :       0.00       0.00          0          0          0
  coefdiving       :       0.00       0.00          0          0          0
  completesol      :       0.00       0.00          0          0          0
  conflictdiving   :       0.00       0.00          0          0          0
  crossover        :       0.00       0.00          0          0          0
  dins             :       0.00       0.00          0          0          0
  distributiondivin:       0.00       0.00          0          0          0
  dualval          :       0.00       0.00          0          0          0
  farkasdiving     :       0.00       0.00          1          1          1
  feaspump         :       0.00       0.00          0          0          0
  fixandinfer      :       0.00       0.00          0          0          0
  fracdiving       :       0.00       0.00          0          0          0
  gins             :       0.00       0.00          0          0          0
  guideddiving     :       0.00       0.00          0          0          0
  indicator        :       0.00       0.00          0          0          0
  intdiving        :       0.00       0.00          0          0          0
  intshifting      :       0.00       0.00          0          0          0
  linesearchdiving :       0.00       0.00          0          0          0
  localbranching   :       0.00       0.00          0          0          0
  locks            :       0.00       0.00          1          1          1
  lpface           :       0.00       0.00          0          0          0
  mpec             :       0.00       0.00          0          0          0
  multistart       :       0.00       0.00          0          0          0
  mutation         :       0.00       0.00          0          0          0
  nlpdiving        :       0.00       0.00          0          0          0
  objpscostdiving  :       0.00       0.00          0          0          0
  octane           :       0.00       0.00          0          0          0
  ofins            :       0.00       0.00          0          0          0
  oneopt           :       0.00       0.00          3          1          1
  padm             :       0.00       0.00          0          0          0
  proximity        :       0.00       0.00          0          0          0
  pscostdiving     :       0.00       0.00          0          0          0
  randrounding     :       0.00       0.00         19          0          0
  rens             :       0.00       0.00          0          0          0
  reoptsols        :       0.00       0.00          0          0          0
  repair           :       0.00       0.00          0          0          0
  rins             :       0.00       0.00          0          0          0
  rootsoldiving    :       0.00       0.00          0          0          0
  rounding         :       0.00       0.00         19          0          0
  shiftandpropagate:       0.00       0.00          0          0          0
  shifting         :       0.00       0.00         19          0          0
  simplerounding   :       0.00       0.00         20         19          2
  subnlp           :       0.00       0.00          0          0          0
  trivial          :       0.00       0.00          2          0          0
  trivialnegation  :       0.00       0.00          0          0          0
  trustregion      :       0.00       0.00          0          0          0
  trysol           :       0.00       0.00          0          0          0
  twoopt           :       0.00       0.00          0          0          0
  undercover       :       0.00       0.00          0          0          0
  vbounds          :       0.00       0.00          0          0          0
  veclendiving     :       0.00       0.00          0          0          0
  zeroobj          :       0.00       0.00          0          0          0
  zirounding       :       0.00       0.00          0          0          0
  other solutions  :          -          -          -          0          -
Diving (single)    :      Calls      Nodes   LP Iters Backtracks  Conflicts   MinDepth   MaxDepth   AvgDepth  RoundSols  NLeafSols  MinSolDpt  MaxSolDpt  AvgSolDpt
  actconsdiving    :          0          -          -          -          -          -          -          -          -          -          -          -          -
  coefdiving       :          0          -          -          -          -          -          -          -          -          -          -          -          -
  conflictdiving   :          0          -          -          -          -          -          -          -          -          -          -          -          -
  distributiondivin:          0          -          -          -          -          -          -          -          -          -          -          -          -
  farkasdiving     :          1          0          0          0          0          1          1        1.0          0          1          1          1        1.0
  fracdiving       :          0          -          -          -          -          -          -          -          -          -          -          -          -
  guideddiving     :          0          -          -          -          -          -          -          -          -          -          -          -          -
  linesearchdiving :          0          -          -          -          -          -          -          -          -          -          -          -          -
  pscostdiving     :          0          -          -          -          -          -          -          -          -          -          -          -          -
  veclendiving     :          0          -          -          -          -          -          -          -          -          -          -          -          -
Diving (adaptive)  :      Calls      Nodes   LP Iters Backtracks  Conflicts   MinDepth   MaxDepth   AvgDepth  RoundSols  NLeafSols  MinSolDpt  MaxSolDpt  AvgSolDpt
  actconsdiving    :          0          -          -          -          -          -          -          -          -          -          -          -          -
  coefdiving       :          0          -          -          -          -          -          -          -          -          -          -          -          -
  conflictdiving   :          0          -          -          -          -          -          -          -          -          -          -          -          -
  distributiondivin:          0          -          -          -          -          -          -          -          -          -          -          -          -
  farkasdiving     :          0          -          -          -          -          -          -          -          -          -          -          -          -
  fracdiving       :          0          -          -          -          -          -          -          -          -          -          -          -          -
  guideddiving     :          0          -          -          -          -          -          -          -          -          -          -          -          -
  linesearchdiving :          0          -          -          -          -          -          -          -          -          -          -          -          -
  pscostdiving     :          0          -          -          -          -          -          -          -          -          -          -          -          -
  veclendiving     :          0          -          -          -          -          -          -          -          -          -          -          -          -
Neighborhoods      :      Calls  SetupTime  SolveTime SolveNodes       Sols       Best       Exp3  EpsGreedy        UCB TgtFixRate  Opt  Inf Node Stal  Sol  Usr Othr Actv
  rens             :          0       0.00       0.00          0          0          0    0.00000   -1.00000    1.00000      0.900    0    0    0    0    0    0    0    1
  rins             :          0       0.00       0.00          0          0          0    0.00000   -1.00000    1.00000      0.900    0    0    0    0    0    0    0    1
  mutation         :          0       0.00       0.00          0          0          0    0.00000   -1.00000    1.00000      0.900    0    0    0    0    0    0    0    1
  localbranching   :          0       0.00       0.00          0          0          0    0.00000   -1.00000    1.00000      0.900    0    0    0    0    0    0    0    1
  crossover        :          0       0.00       0.00          0          0          0    0.00000   -1.00000    1.00000      0.900    0    0    0    0    0    0    0    1
  proximity        :          0       0.00       0.00          0          0          0    0.00000   -1.00000    1.00000      0.900    0    0    0    0    0    0    0    1
  zeroobjective    :          0       0.00       0.00          0          0          0    0.00000   -1.00000    1.00000      0.900    0    0    0    0    0    0    0    1
  dins             :          0       0.00       0.00          0          0          0    0.00000   -1.00000    1.00000      0.900    0    0    0    0    0    0    0    1
  trustregion      :          0       0.00       0.00          0          0          0    0.00000   -1.00000    1.00000      0.900    0    0    0    0    0    0    0    0
LP                 :       Time      Calls Iterations  Iter/call   Iter/sec  Time-0-It Calls-0-It    ItLimit
  primal LP        :       0.00          1          0       0.00          -       0.00          1
  dual LP          :       0.01         20        247      12.35   24700.00       0.00          0
  lex dual LP      :       0.00          0          0       0.00          -
  barrier LP       :       0.00          0          0       0.00          -       0.00          0
  resolve instable :       0.00          0          0       0.00          -
  diving/probing LP:       0.00          1         13      13.00          -
  strong branching :       0.00          0          0       0.00          -          -          -          0
    (at root node) :          -          0          0       0.00          -
  conflict analysis:       0.00          0          0       0.00          -
B&B Tree           :
  number of runs   :          1
  nodes            :          1 (0 internal, 1 leaves)
  feasible leaves  :          0
  infeas. leaves   :          0
  objective leaves :          1
  nodes (total)    :          1 (0 internal, 1 leaves)
  nodes left       :          0
  max depth        :          0
  max depth (total):          0
  backtracks       :          0 (0.0%)
  early backtracks :          0 (0.0%)
  nodes exc. ref.  :          0 (0.0%)
  delayed cutoffs  :          0
  repropagations   :          0 (0 domain reductions, 0 cutoffs)
  avg switch length:       2.00
  switching time   :       0.00
Estim. Tree Size   :          1
Estimation Tree    : 1 nodes (1 visited, 0 inner, 1 leaves, 0 open), weight: 1.0000 completed 1.0000
Estimations        :      estim      value      trend resolution     smooth
  wbe              :          1          -          -          -          -
  tree-profile     :         -1          -          -          -          -
  gap              :          1    1.00000    1.00000          1          1
  tree-weight      :          1    1.00000    1.00000          1          1
  leaf-frequency   :          1    0.50000    1.00000          1          1
  ssg              :          1    0.00000   -1.00000          1          1
  open-nodes       :          1    0.00000    0.00000          1          1
Root Node          :
  First LP value   : +1.76492000000000e+03
  First LP Iters   :         13
  First LP Time    :       0.00
  Final Dual Bound : +1.13430000000000e+04
  Final Root Iters :        247
  Root LP Estimate :                     -
Solution           :
  Solutions found  :         22 (5 improvements)
  First Solution   : +5.62338000000000e+05   (in run 1, after 1 nodes, 0.01 seconds, depth 2, found by <locks>)
  Gap First Sol.   :   infinite
  Gap Last Sol.    :       0.00 %
  Primal Bound     : +1.13430000000000e+04   (in run 1, after 1 nodes, 0.12 seconds, depth 1, found by <farkasdiving>)
  Dual Bound       : +1.13430000000000e+04
  Gap              :       0.00 %
Integrals          :      Total       Avg%
  primal-dual      :       3.84      31.97
  primal-ref       :          -          - (not evaluated)
  dual-ref         :          -          - (not evaluated)

SCIP> checksol

check best solution
solution is feasible in original problem
Violation          :    absolute    relative
  bounds           : 0.00000e+00 0.00000e+00
  integrality      : 0.00000e+00           -
  LP rows          : 8.88178e-15 8.88178e-16
  constraints      : 8.88178e-15 8.88178e-16

SCIP> write sol /local/tmp/bzfhende-tmpdir/bzfhende.instancegroups_fixedCostNetwoorkFlow.12_k20x380b.scip.M620.periodic_report-s3.sol

written solution information to file </local/tmp/bzfhende-tmpdir/bzfhende.instancegroups_fixedCostNetworkFlow.12_k20x380b.scip.M620.periodic_report-s3.sol>

SCIP> quit

Read MPS: 1
MIP has 760 vars and 400 constraints
Read SOL: 1
Objective value computed by solver: 11343

Integrality tolerance: 1/10000
Linear tolerance: 1/10000
Objective tolerance: 1/10000

Check SOL: Integrality 1 Constraints 1 Objective 1
Maximum violations: Integrality 0 Constraints 0 Objective 0
@04 1583705801
-----------------------------
So 8. Mär 23:16:41 CET 2020
-----------------------------

=ready=
